Name = "Data file 1";

% NumVehicles = 3;

locX = [226.0, 173.0, 198.0, 209.0];
locY = [234.0, 167.0, 189.0, 207.0];
% locX = [226.0, 109.0];
% locY = [ 74.0, 107.0];

% Demand = [100,100,100,100,100,100];

% Capacity = [300,300,300];
